(set-info :category "industrial")
(set-info :status sat)
(declare-fun x03 () (_ BitVec 8))
(declare-fun x04 () (_ BitVec 8))
(declare-fun x06 () (_ BitVec 8))
(declare-fun x08 () (_ BitVec 8))
(declare-fun x10 () (_ BitVec 8))
(declare-fun x11 () (_ BitVec 8))
(declare-fun x12 () (_ BitVec 8))
(declare-fun x13 () (_ BitVec 8))
(declare-fun x18 () (_ BitVec 8))
(declare-fun x21 () (_ BitVec 8))
(declare-fun x22 () (_ BitVec 8))
(declare-fun x23 () (_ BitVec 8))
(declare-fun x25 () (_ BitVec 8))
(declare-fun x26 () (_ BitVec 8))
(declare-fun x27 () (_ BitVec 8))
(declare-fun x28 () (_ BitVec 8))
(declare-fun x30 () (_ BitVec 8))
(declare-fun x31 () (_ BitVec 8))
(declare-fun x32 () (_ BitVec 8))
(declare-fun x33 () (_ BitVec 8))
(declare-fun x34 () (_ BitVec 8))
(declare-fun x38 () (_ BitVec 8))
(declare-fun x40 () (_ BitVec 8))
(declare-fun x42 () (_ BitVec 8))
(declare-fun x45 () (_ BitVec 8))
(declare-fun x47 () (_ BitVec 8))
(declare-fun x48 () (_ BitVec 8))
(declare-fun x50 () (_ BitVec 8))
(declare-fun x52 () (_ BitVec 8))
(declare-fun x53 () (_ BitVec 8))
(declare-fun x57 () (_ BitVec 8))
(declare-fun x58 () (_ BitVec 8))
(declare-fun x63 () (_ BitVec 8))
(declare-fun x65 () (_ BitVec 8))
(declare-fun x67 () (_ BitVec 8))
(declare-fun x68 () (_ BitVec 8))
(declare-fun x70 () (_ BitVec 8))
(declare-fun x71 () (_ BitVec 8))
(declare-fun x73 () (_ BitVec 8))
(declare-fun x74 () (_ BitVec 8))
(declare-fun x76 () (_ BitVec 8))
(declare-fun x77 () (_ BitVec 8))
(declare-fun x81 () (_ BitVec 8))
(declare-fun x82 () (_ BitVec 8))
(declare-fun x83 () (_ BitVec 8))
(declare-fun x84 () (_ BitVec 8))
(assert (bvult x03 (_ bv9 8)))
(assert (bvult x04 (_ bv9 8)))
(assert (bvult x06 (_ bv9 8)))
(assert (bvult x08 (_ bv9 8)))
(assert (bvult x10 (_ bv9 8)))
(assert (bvult x11 (_ bv9 8)))
(assert (bvult x12 (_ bv9 8)))
(assert (bvult x13 (_ bv9 8)))
(assert (bvult x18 (_ bv9 8)))
(assert (bvult x21 (_ bv9 8)))
(assert (bvult x22 (_ bv9 8)))
(assert (bvult x23 (_ bv9 8)))
(assert (bvult x25 (_ bv9 8)))
(assert (bvult x26 (_ bv9 8)))
(assert (bvult x27 (_ bv9 8)))
(assert (bvult x28 (_ bv9 8)))
(assert (bvult x30 (_ bv9 8)))
(assert (bvult x31 (_ bv9 8)))
(assert (bvult x32 (_ bv9 8)))
(assert (bvult x33 (_ bv9 8)))
(assert (bvult x34 (_ bv9 8)))
(assert (bvult x38 (_ bv9 8)))
(assert (bvult x40 (_ bv9 8)))
(assert (bvult x42 (_ bv9 8)))
(assert (bvult x45 (_ bv9 8)))
(assert (bvult x47 (_ bv9 8)))
(assert (bvult x48 (_ bv9 8)))
(assert (bvult x50 (_ bv9 8)))
(assert (bvult x52 (_ bv9 8)))
(assert (bvult x53 (_ bv9 8)))
(assert (bvult x57 (_ bv9 8)))
(assert (bvult x58 (_ bv9 8)))
(assert (bvult x63 (_ bv9 8)))
(assert (bvult x65 (_ bv9 8)))
(assert (bvult x67 (_ bv9 8)))
(assert (bvult x68 (_ bv9 8)))
(assert (bvult x70 (_ bv9 8)))
(assert (bvult x71 (_ bv9 8)))
(assert (bvult x73 (_ bv9 8)))
(assert (bvult x74 (_ bv9 8)))
(assert (bvult x76 (_ bv9 8)))
(assert (bvult x77 (_ bv9 8)))
(assert (bvult x81 (_ bv9 8)))
(assert (bvult x82 (_ bv9 8)))
(assert (bvult x83 (_ bv9 8)))
(assert (bvult x84 (_ bv9 8)))
(assert (not (= (_ bv6 8) (_ bv2 8))))
(assert (not (= (_ bv6 8) (_ bv4 8))))
(assert (not (= (_ bv6 8) x03)))
(assert (not (= (_ bv6 8) x04)))
(assert (not (= (_ bv6 8) (_ bv3 8))))
(assert (not (= (_ bv6 8) x06)))
(assert (not (= (_ bv6 8) (_ bv1 8))))
(assert (not (= (_ bv6 8) x08)))
(assert (not (= (_ bv2 8) (_ bv4 8))))
(assert (not (= (_ bv2 8) x03)))
(assert (not (= (_ bv2 8) x04)))
(assert (not (= (_ bv2 8) (_ bv3 8))))
(assert (not (= (_ bv2 8) x06)))
(assert (not (= (_ bv2 8) (_ bv1 8))))
(assert (not (= (_ bv2 8) x08)))
(assert (not (= (_ bv4 8) x03)))
(assert (not (= (_ bv4 8) x04)))
(assert (not (= (_ bv4 8) (_ bv3 8))))
(assert (not (= (_ bv4 8) x06)))
(assert (not (= (_ bv4 8) (_ bv1 8))))
(assert (not (= (_ bv4 8) x08)))
(assert (not (= x03 x04)))
(assert (not (= x03 (_ bv3 8))))
(assert (not (= x03 x06)))
(assert (not (= x03 (_ bv1 8))))
(assert (not (= x03 x08)))
(assert (not (= x04 (_ bv3 8))))
(assert (not (= x04 x06)))
(assert (not (= x04 (_ bv1 8))))
(assert (not (= x04 x08)))
(assert (not (= (_ bv3 8) x06)))
(assert (not (= (_ bv3 8) (_ bv1 8))))
(assert (not (= (_ bv3 8) x08)))
(assert (not (= x06 (_ bv1 8))))
(assert (not (= x06 x08)))
(assert (not (= (_ bv1 8) x08)))
(assert (not (= x10 x11)))
(assert (not (= x10 x12)))
(assert (not (= x10 x13)))
(assert (not (= x10 (_ bv7 8))))
(assert (not (= x10 (_ bv2 8))))
(assert (not (= x10 (_ bv4 8))))
(assert (not (= x10 (_ bv3 8))))
(assert (not (= x10 x18)))
(assert (not (= x11 x12)))
(assert (not (= x11 x13)))
(assert (not (= x11 (_ bv7 8))))
(assert (not (= x11 (_ bv2 8))))
(assert (not (= x11 (_ bv4 8))))
(assert (not (= x11 (_ bv3 8))))
(assert (not (= x11 x18)))
(assert (not (= x12 x13)))
(assert (not (= x12 (_ bv7 8))))
(assert (not (= x12 (_ bv2 8))))
(assert (not (= x12 (_ bv4 8))))
(assert (not (= x12 (_ bv3 8))))
(assert (not (= x12 x18)))
(assert (not (= x13 (_ bv7 8))))
(assert (not (= x13 (_ bv2 8))))
(assert (not (= x13 (_ bv4 8))))
(assert (not (= x13 (_ bv3 8))))
(assert (not (= x13 x18)))
(assert (not (= (_ bv7 8) (_ bv2 8))))
(assert (not (= (_ bv7 8) (_ bv4 8))))
(assert (not (= (_ bv7 8) (_ bv3 8))))
(assert (not (= (_ bv7 8) x18)))
(assert (not (= (_ bv2 8) (_ bv4 8))))
(assert (not (= (_ bv2 8) (_ bv3 8))))
(assert (not (= (_ bv2 8) x18)))
(assert (not (= (_ bv4 8) (_ bv3 8))))
(assert (not (= (_ bv4 8) x18)))
(assert (not (= (_ bv3 8) x18)))
(assert (not (= (_ bv8 8) x21)))
(assert (not (= (_ bv8 8) x22)))
(assert (not (= (_ bv8 8) x23)))
(assert (not (= (_ bv8 8) (_ bv1 8))))
(assert (not (= (_ bv8 8) x25)))
(assert (not (= (_ bv8 8) x26)))
(assert (not (= (_ bv8 8) x27)))
(assert (not (= (_ bv8 8) x28)))
(assert (not (= x21 x22)))
(assert (not (= x21 x23)))
(assert (not (= x21 (_ bv1 8))))
(assert (not (= x21 x25)))
(assert (not (= x21 x26)))
(assert (not (= x21 x27)))
(assert (not (= x21 x28)))
(assert (not (= x22 x23)))
(assert (not (= x22 (_ bv1 8))))
(assert (not (= x22 x25)))
(assert (not (= x22 x26)))
(assert (not (= x22 x27)))
(assert (not (= x22 x28)))
(assert (not (= x23 (_ bv1 8))))
(assert (not (= x23 x25)))
(assert (not (= x23 x26)))
(assert (not (= x23 x27)))
(assert (not (= x23 x28)))
(assert (not (= (_ bv1 8) x25)))
(assert (not (= (_ bv1 8) x26)))
(assert (not (= (_ bv1 8) x27)))
(assert (not (= (_ bv1 8) x28)))
(assert (not (= x25 x26)))
(assert (not (= x25 x27)))
(assert (not (= x25 x28)))
(assert (not (= x26 x27)))
(assert (not (= x26 x28)))
(assert (not (= x27 x28)))
(assert (not (= x30 x31)))
(assert (not (= x30 x32)))
(assert (not (= x30 x33)))
(assert (not (= x30 x34)))
(assert (not (= x30 (_ bv1 8))))
(assert (not (= x30 (_ bv2 8))))
(assert (not (= x30 (_ bv7 8))))
(assert (not (= x30 x38)))
(assert (not (= x31 x32)))
(assert (not (= x31 x33)))
(assert (not (= x31 x34)))
(assert (not (= x31 (_ bv1 8))))
(assert (not (= x31 (_ bv2 8))))
(assert (not (= x31 (_ bv7 8))))
(assert (not (= x31 x38)))
(assert (not (= x32 x33)))
(assert (not (= x32 x34)))
(assert (not (= x32 (_ bv1 8))))
(assert (not (= x32 (_ bv2 8))))
(assert (not (= x32 (_ bv7 8))))
(assert (not (= x32 x38)))
(assert (not (= x33 x34)))
(assert (not (= x33 (_ bv1 8))))
(assert (not (= x33 (_ bv2 8))))
(assert (not (= x33 (_ bv7 8))))
(assert (not (= x33 x38)))
(assert (not (= x34 (_ bv1 8))))
(assert (not (= x34 (_ bv2 8))))
(assert (not (= x34 (_ bv7 8))))
(assert (not (= x34 x38)))
(assert (not (= (_ bv1 8) (_ bv2 8))))
(assert (not (= (_ bv1 8) (_ bv7 8))))
(assert (not (= (_ bv1 8) x38)))
(assert (not (= (_ bv2 8) (_ bv7 8))))
(assert (not (= (_ bv2 8) x38)))
(assert (not (= (_ bv7 8) x38)))
(assert (not (= x40 (_ bv6 8))))
(assert (not (= x40 x42)))
(assert (not (= x40 (_ bv5 8))))
(assert (not (= x40 (_ bv3 8))))
(assert (not (= x40 x45)))
(assert (not (= x40 (_ bv1 8))))
(assert (not (= x40 x47)))
(assert (not (= x40 x48)))
(assert (not (= (_ bv6 8) x42)))
(assert (not (= (_ bv6 8) (_ bv5 8))))
(assert (not (= (_ bv6 8) (_ bv3 8))))
(assert (not (= (_ bv6 8) x45)))
(assert (not (= (_ bv6 8) (_ bv1 8))))
(assert (not (= (_ bv6 8) x47)))
(assert (not (= (_ bv6 8) x48)))
(assert (not (= x42 (_ bv5 8))))
(assert (not (= x42 (_ bv3 8))))
(assert (not (= x42 x45)))
(assert (not (= x42 (_ bv1 8))))
(assert (not (= x42 x47)))
(assert (not (= x42 x48)))
(assert (not (= (_ bv5 8) (_ bv3 8))))
(assert (not (= (_ bv5 8) x45)))
(assert (not (= (_ bv5 8) (_ bv1 8))))
(assert (not (= (_ bv5 8) x47)))
(assert (not (= (_ bv5 8) x48)))
(assert (not (= (_ bv3 8) x45)))
(assert (not (= (_ bv3 8) (_ bv1 8))))
(assert (not (= (_ bv3 8) x47)))
(assert (not (= (_ bv3 8) x48)))
(assert (not (= x45 (_ bv1 8))))
(assert (not (= x45 x47)))
(assert (not (= x45 x48)))
(assert (not (= (_ bv1 8) x47)))
(assert (not (= (_ bv1 8) x48)))
(assert (not (= x47 x48)))
(assert (not (= x50 (_ bv3 8))))
(assert (not (= x50 x52)))
(assert (not (= x50 x53)))
(assert (not (= x50 (_ bv8 8))))
(assert (not (= x50 (_ bv4 8))))
(assert (not (= x50 (_ bv6 8))))
(assert (not (= x50 x57)))
(assert (not (= x50 x58)))
(assert (not (= (_ bv3 8) x52)))
(assert (not (= (_ bv3 8) x53)))
(assert (not (= (_ bv3 8) (_ bv8 8))))
(assert (not (= (_ bv3 8) (_ bv4 8))))
(assert (not (= (_ bv3 8) (_ bv6 8))))
(assert (not (= (_ bv3 8) x57)))
(assert (not (= (_ bv3 8) x58)))
(assert (not (= x52 x53)))
(assert (not (= x52 (_ bv8 8))))
(assert (not (= x52 (_ bv4 8))))
(assert (not (= x52 (_ bv6 8))))
(assert (not (= x52 x57)))
(assert (not (= x52 x58)))
(assert (not (= x53 (_ bv8 8))))
(assert (not (= x53 (_ bv4 8))))
(assert (not (= x53 (_ bv6 8))))
(assert (not (= x53 x57)))
(assert (not (= x53 x58)))
(assert (not (= (_ bv8 8) (_ bv4 8))))
(assert (not (= (_ bv8 8) (_ bv6 8))))
(assert (not (= (_ bv8 8) x57)))
(assert (not (= (_ bv8 8) x58)))
(assert (not (= (_ bv4 8) (_ bv6 8))))
(assert (not (= (_ bv4 8) x57)))
(assert (not (= (_ bv4 8) x58)))
(assert (not (= (_ bv6 8) x57)))
(assert (not (= (_ bv6 8) x58)))
(assert (not (= x57 x58)))
(assert (not (= (_ bv2 8) (_ bv4 8))))
(assert (not (= (_ bv2 8) (_ bv7 8))))
(assert (not (= (_ bv2 8) x63)))
(assert (not (= (_ bv2 8) (_ bv6 8))))
(assert (not (= (_ bv2 8) x65)))
(assert (not (= (_ bv2 8) (_ bv9 8))))
(assert (not (= (_ bv2 8) x67)))
(assert (not (= (_ bv2 8) x68)))
(assert (not (= (_ bv4 8) (_ bv7 8))))
(assert (not (= (_ bv4 8) x63)))
(assert (not (= (_ bv4 8) (_ bv6 8))))
(assert (not (= (_ bv4 8) x65)))
(assert (not (= (_ bv4 8) (_ bv9 8))))
(assert (not (= (_ bv4 8) x67)))
(assert (not (= (_ bv4 8) x68)))
(assert (not (= (_ bv7 8) x63)))
(assert (not (= (_ bv7 8) (_ bv6 8))))
(assert (not (= (_ bv7 8) x65)))
(assert (not (= (_ bv7 8) (_ bv9 8))))
(assert (not (= (_ bv7 8) x67)))
(assert (not (= (_ bv7 8) x68)))
(assert (not (= x63 (_ bv6 8))))
(assert (not (= x63 x65)))
(assert (not (= x63 (_ bv9 8))))
(assert (not (= x63 x67)))
(assert (not (= x63 x68)))
(assert (not (= (_ bv6 8) x65)))
(assert (not (= (_ bv6 8) (_ bv9 8))))
(assert (not (= (_ bv6 8) x67)))
(assert (not (= (_ bv6 8) x68)))
(assert (not (= x65 (_ bv9 8))))
(assert (not (= x65 x67)))
(assert (not (= x65 x68)))
(assert (not (= (_ bv9 8) x67)))
(assert (not (= (_ bv9 8) x68)))
(assert (not (= x67 x68)))
(assert (not (= x70 x71)))
(assert (not (= x70 (_ bv5 8))))
(assert (not (= x70 x73)))
(assert (not (= x70 x74)))
(assert (not (= x70 (_ bv8 8))))
(assert (not (= x70 x76)))
(assert (not (= x70 x77)))
(assert (not (= x70 (_ bv4 8))))
(assert (not (= x71 (_ bv5 8))))
(assert (not (= x71 x73)))
(assert (not (= x71 x74)))
(assert (not (= x71 (_ bv8 8))))
(assert (not (= x71 x76)))
(assert (not (= x71 x77)))
(assert (not (= x71 (_ bv4 8))))
(assert (not (= (_ bv5 8) x73)))
(assert (not (= (_ bv5 8) x74)))
(assert (not (= (_ bv5 8) (_ bv8 8))))
(assert (not (= (_ bv5 8) x76)))
(assert (not (= (_ bv5 8) x77)))
(assert (not (= (_ bv5 8) (_ bv4 8))))
(assert (not (= x73 x74)))
(assert (not (= x73 (_ bv8 8))))
(assert (not (= x73 x76)))
(assert (not (= x73 x77)))
(assert (not (= x73 (_ bv4 8))))
(assert (not (= x74 (_ bv8 8))))
(assert (not (= x74 x76)))
(assert (not (= x74 x77)))
(assert (not (= x74 (_ bv4 8))))
(assert (not (= (_ bv8 8) x76)))
(assert (not (= (_ bv8 8) x77)))
(assert (not (= (_ bv8 8) (_ bv4 8))))
(assert (not (= x76 x77)))
(assert (not (= x76 (_ bv4 8))))
(assert (not (= x77 (_ bv4 8))))
(assert (not (= (_ bv1 8) x81)))
(assert (not (= (_ bv1 8) x82)))
(assert (not (= (_ bv1 8) x83)))
(assert (not (= (_ bv1 8) x84)))
(assert (not (= (_ bv1 8) (_ bv9 8))))
(assert (not (= (_ bv1 8) (_ bv3 8))))
(assert (not (= (_ bv1 8) (_ bv2 8))))
(assert (not (= (_ bv1 8) (_ bv5 8))))
(assert (not (= x81 x82)))
(assert (not (= x81 x83)))
(assert (not (= x81 x84)))
(assert (not (= x81 (_ bv9 8))))
(assert (not (= x81 (_ bv3 8))))
(assert (not (= x81 (_ bv2 8))))
(assert (not (= x81 (_ bv5 8))))
(assert (not (= x82 x83)))
(assert (not (= x82 x84)))
(assert (not (= x82 (_ bv9 8))))
(assert (not (= x82 (_ bv3 8))))
(assert (not (= x82 (_ bv2 8))))
(assert (not (= x82 (_ bv5 8))))
(assert (not (= x83 x84)))
(assert (not (= x83 (_ bv9 8))))
(assert (not (= x83 (_ bv3 8))))
(assert (not (= x83 (_ bv2 8))))
(assert (not (= x83 (_ bv5 8))))
(assert (not (= x84 (_ bv9 8))))
(assert (not (= x84 (_ bv3 8))))
(assert (not (= x84 (_ bv2 8))))
(assert (not (= x84 (_ bv5 8))))
(assert (not (= (_ bv9 8) (_ bv3 8))))
(assert (not (= (_ bv9 8) (_ bv2 8))))
(assert (not (= (_ bv9 8) (_ bv5 8))))
(assert (not (= (_ bv3 8) (_ bv2 8))))
(assert (not (= (_ bv3 8) (_ bv5 8))))
(assert (not (= (_ bv2 8) (_ bv5 8))))
(assert (not (= (_ bv6 8) x10)))
(assert (not (= (_ bv6 8) (_ bv8 8))))
(assert (not (= (_ bv6 8) x30)))
(assert (not (= (_ bv6 8) x40)))
(assert (not (= (_ bv6 8) x50)))
(assert (not (= (_ bv6 8) (_ bv2 8))))
(assert (not (= (_ bv6 8) x70)))
(assert (not (= (_ bv6 8) (_ bv1 8))))
(assert (not (= x10 (_ bv8 8))))
(assert (not (= x10 x30)))
(assert (not (= x10 x40)))
(assert (not (= x10 x50)))
(assert (not (= x10 (_ bv2 8))))
(assert (not (= x10 x70)))
(assert (not (= x10 (_ bv1 8))))
(assert (not (= (_ bv8 8) x30)))
(assert (not (= (_ bv8 8) x40)))
(assert (not (= (_ bv8 8) x50)))
(assert (not (= (_ bv8 8) (_ bv2 8))))
(assert (not (= (_ bv8 8) x70)))
(assert (not (= (_ bv8 8) (_ bv1 8))))
(assert (not (= x30 x40)))
(assert (not (= x30 x50)))
(assert (not (= x30 (_ bv2 8))))
(assert (not (= x30 x70)))
(assert (not (= x30 (_ bv1 8))))
(assert (not (= x40 x50)))
(assert (not (= x40 (_ bv2 8))))
(assert (not (= x40 x70)))
(assert (not (= x40 (_ bv1 8))))
(assert (not (= x50 (_ bv2 8))))
(assert (not (= x50 x70)))
(assert (not (= x50 (_ bv1 8))))
(assert (not (= (_ bv2 8) x70)))
(assert (not (= (_ bv2 8) (_ bv1 8))))
(assert (not (= x70 (_ bv1 8))))
(assert (not (= (_ bv2 8) x11)))
(assert (not (= (_ bv2 8) x21)))
(assert (not (= (_ bv2 8) x31)))
(assert (not (= (_ bv2 8) (_ bv6 8))))
(assert (not (= (_ bv2 8) (_ bv3 8))))
(assert (not (= (_ bv2 8) (_ bv4 8))))
(assert (not (= (_ bv2 8) x71)))
(assert (not (= (_ bv2 8) x81)))
(assert (not (= x11 x21)))
(assert (not (= x11 x31)))
(assert (not (= x11 (_ bv6 8))))
(assert (not (= x11 (_ bv3 8))))
(assert (not (= x11 (_ bv4 8))))
(assert (not (= x11 x71)))
(assert (not (= x11 x81)))
(assert (not (= x21 x31)))
(assert (not (= x21 (_ bv6 8))))
(assert (not (= x21 (_ bv3 8))))
(assert (not (= x21 (_ bv4 8))))
(assert (not (= x21 x71)))
(assert (not (= x21 x81)))
(assert (not (= x31 (_ bv6 8))))
(assert (not (= x31 (_ bv3 8))))
(assert (not (= x31 (_ bv4 8))))
(assert (not (= x31 x71)))
(assert (not (= x31 x81)))
(assert (not (= (_ bv6 8) (_ bv3 8))))
(assert (not (= (_ bv6 8) (_ bv4 8))))
(assert (not (= (_ bv6 8) x71)))
(assert (not (= (_ bv6 8) x81)))
(assert (not (= (_ bv3 8) (_ bv4 8))))
(assert (not (= (_ bv3 8) x71)))
(assert (not (= (_ bv3 8) x81)))
(assert (not (= (_ bv4 8) x71)))
(assert (not (= (_ bv4 8) x81)))
(assert (not (= x71 x81)))
(assert (not (= (_ bv4 8) x12)))
(assert (not (= (_ bv4 8) x22)))
(assert (not (= (_ bv4 8) x32)))
(assert (not (= (_ bv4 8) x42)))
(assert (not (= (_ bv4 8) x52)))
(assert (not (= (_ bv4 8) (_ bv7 8))))
(assert (not (= (_ bv4 8) (_ bv5 8))))
(assert (not (= (_ bv4 8) x82)))
(assert (not (= x12 x22)))
(assert (not (= x12 x32)))
(assert (not (= x12 x42)))
(assert (not (= x12 x52)))
(assert (not (= x12 (_ bv7 8))))
(assert (not (= x12 (_ bv5 8))))
(assert (not (= x12 x82)))
(assert (not (= x22 x32)))
(assert (not (= x22 x42)))
(assert (not (= x22 x52)))
(assert (not (= x22 (_ bv7 8))))
(assert (not (= x22 (_ bv5 8))))
(assert (not (= x22 x82)))
(assert (not (= x32 x42)))
(assert (not (= x32 x52)))
(assert (not (= x32 (_ bv7 8))))
(assert (not (= x32 (_ bv5 8))))
(assert (not (= x32 x82)))
(assert (not (= x42 x52)))
(assert (not (= x42 (_ bv7 8))))
(assert (not (= x42 (_ bv5 8))))
(assert (not (= x42 x82)))
(assert (not (= x52 (_ bv7 8))))
(assert (not (= x52 (_ bv5 8))))
(assert (not (= x52 x82)))
(assert (not (= (_ bv7 8) (_ bv5 8))))
(assert (not (= (_ bv7 8) x82)))
(assert (not (= (_ bv5 8) x82)))
(assert (not (= x03 x13)))
(assert (not (= x03 x23)))
(assert (not (= x03 x33)))
(assert (not (= x03 (_ bv5 8))))
(assert (not (= x03 x53)))
(assert (not (= x03 x63)))
(assert (not (= x03 x73)))
(assert (not (= x03 x83)))
(assert (not (= x13 x23)))
(assert (not (= x13 x33)))
(assert (not (= x13 (_ bv5 8))))
(assert (not (= x13 x53)))
(assert (not (= x13 x63)))
(assert (not (= x13 x73)))
(assert (not (= x13 x83)))
(assert (not (= x23 x33)))
(assert (not (= x23 (_ bv5 8))))
(assert (not (= x23 x53)))
(assert (not (= x23 x63)))
(assert (not (= x23 x73)))
(assert (not (= x23 x83)))
(assert (not (= x33 (_ bv5 8))))
(assert (not (= x33 x53)))
(assert (not (= x33 x63)))
(assert (not (= x33 x73)))
(assert (not (= x33 x83)))
(assert (not (= (_ bv5 8) x53)))
(assert (not (= (_ bv5 8) x63)))
(assert (not (= (_ bv5 8) x73)))
(assert (not (= (_ bv5 8) x83)))
(assert (not (= x53 x63)))
(assert (not (= x53 x73)))
(assert (not (= x53 x83)))
(assert (not (= x63 x73)))
(assert (not (= x63 x83)))
(assert (not (= x73 x83)))
(assert (not (= x04 (_ bv7 8))))
(assert (not (= x04 (_ bv1 8))))
(assert (not (= x04 x34)))
(assert (not (= x04 (_ bv3 8))))
(assert (not (= x04 (_ bv8 8))))
(assert (not (= x04 (_ bv6 8))))
(assert (not (= x04 x74)))
(assert (not (= x04 x84)))
(assert (not (= (_ bv7 8) (_ bv1 8))))
(assert (not (= (_ bv7 8) x34)))
(assert (not (= (_ bv7 8) (_ bv3 8))))
(assert (not (= (_ bv7 8) (_ bv8 8))))
(assert (not (= (_ bv7 8) (_ bv6 8))))
(assert (not (= (_ bv7 8) x74)))
(assert (not (= (_ bv7 8) x84)))
(assert (not (= (_ bv1 8) x34)))
(assert (not (= (_ bv1 8) (_ bv3 8))))
(assert (not (= (_ bv1 8) (_ bv8 8))))
(assert (not (= (_ bv1 8) (_ bv6 8))))
(assert (not (= (_ bv1 8) x74)))
(assert (not (= (_ bv1 8) x84)))
(assert (not (= x34 (_ bv3 8))))
(assert (not (= x34 (_ bv8 8))))
(assert (not (= x34 (_ bv6 8))))
(assert (not (= x34 x74)))
(assert (not (= x34 x84)))
(assert (not (= (_ bv3 8) (_ bv8 8))))
(assert (not (= (_ bv3 8) (_ bv6 8))))
(assert (not (= (_ bv3 8) x74)))
(assert (not (= (_ bv3 8) x84)))
(assert (not (= (_ bv8 8) (_ bv6 8))))
(assert (not (= (_ bv8 8) x74)))
(assert (not (= (_ bv8 8) x84)))
(assert (not (= (_ bv6 8) x74)))
(assert (not (= (_ bv6 8) x84)))
(assert (not (= x74 x84)))
(assert (not (= (_ bv3 8) (_ bv2 8))))
(assert (not (= (_ bv3 8) x25)))
(assert (not (= (_ bv3 8) (_ bv1 8))))
(assert (not (= (_ bv3 8) x45)))
(assert (not (= (_ bv3 8) (_ bv4 8))))
(assert (not (= (_ bv3 8) x65)))
(assert (not (= (_ bv3 8) (_ bv8 8))))
(assert (not (= (_ bv3 8) (_ bv9 8))))
(assert (not (= (_ bv2 8) x25)))
(assert (not (= (_ bv2 8) (_ bv1 8))))
(assert (not (= (_ bv2 8) x45)))
(assert (not (= (_ bv2 8) (_ bv4 8))))
(assert (not (= (_ bv2 8) x65)))
(assert (not (= (_ bv2 8) (_ bv8 8))))
(assert (not (= (_ bv2 8) (_ bv9 8))))
(assert (not (= x25 (_ bv1 8))))
(assert (not (= x25 x45)))
(assert (not (= x25 (_ bv4 8))))
(assert (not (= x25 x65)))
(assert (not (= x25 (_ bv8 8))))
(assert (not (= x25 (_ bv9 8))))
(assert (not (= (_ bv1 8) x45)))
(assert (not (= (_ bv1 8) (_ bv4 8))))
(assert (not (= (_ bv1 8) x65)))
(assert (not (= (_ bv1 8) (_ bv8 8))))
(assert (not (= (_ bv1 8) (_ bv9 8))))
(assert (not (= x45 (_ bv4 8))))
(assert (not (= x45 x65)))
(assert (not (= x45 (_ bv8 8))))
(assert (not (= x45 (_ bv9 8))))
(assert (not (= (_ bv4 8) x65)))
(assert (not (= (_ bv4 8) (_ bv8 8))))
(assert (not (= (_ bv4 8) (_ bv9 8))))
(assert (not (= x65 (_ bv8 8))))
(assert (not (= x65 (_ bv9 8))))
(assert (not (= (_ bv8 8) (_ bv9 8))))
(assert (not (= x06 (_ bv4 8))))
(assert (not (= x06 x26)))
(assert (not (= x06 (_ bv2 8))))
(assert (not (= x06 (_ bv1 8))))
(assert (not (= x06 (_ bv6 8))))
(assert (not (= x06 (_ bv9 8))))
(assert (not (= x06 x76)))
(assert (not (= x06 (_ bv3 8))))
(assert (not (= (_ bv4 8) x26)))
(assert (not (= (_ bv4 8) (_ bv2 8))))
(assert (not (= (_ bv4 8) (_ bv1 8))))
(assert (not (= (_ bv4 8) (_ bv6 8))))
(assert (not (= (_ bv4 8) (_ bv9 8))))
(assert (not (= (_ bv4 8) x76)))
(assert (not (= (_ bv4 8) (_ bv3 8))))
(assert (not (= x26 (_ bv2 8))))
(assert (not (= x26 (_ bv1 8))))
(assert (not (= x26 (_ bv6 8))))
(assert (not (= x26 (_ bv9 8))))
(assert (not (= x26 x76)))
(assert (not (= x26 (_ bv3 8))))
(assert (not (= (_ bv2 8) (_ bv1 8))))
(assert (not (= (_ bv2 8) (_ bv6 8))))
(assert (not (= (_ bv2 8) (_ bv9 8))))
(assert (not (= (_ bv2 8) x76)))
(assert (not (= (_ bv2 8) (_ bv3 8))))
(assert (not (= (_ bv1 8) (_ bv6 8))))
(assert (not (= (_ bv1 8) (_ bv9 8))))
(assert (not (= (_ bv1 8) x76)))
(assert (not (= (_ bv1 8) (_ bv3 8))))
(assert (not (= (_ bv6 8) (_ bv9 8))))
(assert (not (= (_ bv6 8) x76)))
(assert (not (= (_ bv6 8) (_ bv3 8))))
(assert (not (= (_ bv9 8) x76)))
(assert (not (= (_ bv9 8) (_ bv3 8))))
(assert (not (= x76 (_ bv3 8))))
(assert (not (= (_ bv1 8) (_ bv3 8))))
(assert (not (= (_ bv1 8) x27)))
(assert (not (= (_ bv1 8) (_ bv7 8))))
(assert (not (= (_ bv1 8) x47)))
(assert (not (= (_ bv1 8) x57)))
(assert (not (= (_ bv1 8) x67)))
(assert (not (= (_ bv1 8) x77)))
(assert (not (= (_ bv1 8) (_ bv2 8))))
(assert (not (= (_ bv3 8) x27)))
(assert (not (= (_ bv3 8) (_ bv7 8))))
(assert (not (= (_ bv3 8) x47)))
(assert (not (= (_ bv3 8) x57)))
(assert (not (= (_ bv3 8) x67)))
(assert (not (= (_ bv3 8) x77)))
(assert (not (= (_ bv3 8) (_ bv2 8))))
(assert (not (= x27 (_ bv7 8))))
(assert (not (= x27 x47)))
(assert (not (= x27 x57)))
(assert (not (= x27 x67)))
(assert (not (= x27 x77)))
(assert (not (= x27 (_ bv2 8))))
(assert (not (= (_ bv7 8) x47)))
(assert (not (= (_ bv7 8) x57)))
(assert (not (= (_ bv7 8) x67)))
(assert (not (= (_ bv7 8) x77)))
(assert (not (= (_ bv7 8) (_ bv2 8))))
(assert (not (= x47 x57)))
(assert (not (= x47 x67)))
(assert (not (= x47 x77)))
(assert (not (= x47 (_ bv2 8))))
(assert (not (= x57 x67)))
(assert (not (= x57 x77)))
(assert (not (= x57 (_ bv2 8))))
(assert (not (= x67 x77)))
(assert (not (= x67 (_ bv2 8))))
(assert (not (= x77 (_ bv2 8))))
(assert (not (= x08 x18)))
(assert (not (= x08 x28)))
(assert (not (= x08 x38)))
(assert (not (= x08 x48)))
(assert (not (= x08 x58)))
(assert (not (= x08 x68)))
(assert (not (= x08 (_ bv4 8))))
(assert (not (= x08 (_ bv5 8))))
(assert (not (= x18 x28)))
(assert (not (= x18 x38)))
(assert (not (= x18 x48)))
(assert (not (= x18 x58)))
(assert (not (= x18 x68)))
(assert (not (= x18 (_ bv4 8))))
(assert (not (= x18 (_ bv5 8))))
(assert (not (= x28 x38)))
(assert (not (= x28 x48)))
(assert (not (= x28 x58)))
(assert (not (= x28 x68)))
(assert (not (= x28 (_ bv4 8))))
(assert (not (= x28 (_ bv5 8))))
(assert (not (= x38 x48)))
(assert (not (= x38 x58)))
(assert (not (= x38 x68)))
(assert (not (= x38 (_ bv4 8))))
(assert (not (= x38 (_ bv5 8))))
(assert (not (= x48 x58)))
(assert (not (= x48 x68)))
(assert (not (= x48 (_ bv4 8))))
(assert (not (= x48 (_ bv5 8))))
(assert (not (= x58 x68)))
(assert (not (= x58 (_ bv4 8))))
(assert (not (= x58 (_ bv5 8))))
(assert (not (= x68 (_ bv4 8))))
(assert (not (= x68 (_ bv5 8))))
(assert (not (= (_ bv4 8) (_ bv5 8))))
(assert (not (= (_ bv6 8) (_ bv2 8))))
(assert (not (= (_ bv6 8) (_ bv4 8))))
(assert (not (= (_ bv6 8) x10)))
(assert (not (= (_ bv6 8) x11)))
(assert (not (= (_ bv6 8) x12)))
(assert (not (= (_ bv6 8) (_ bv8 8))))
(assert (not (= (_ bv6 8) x21)))
(assert (not (= (_ bv6 8) x22)))
(assert (not (= (_ bv2 8) (_ bv4 8))))
(assert (not (= (_ bv2 8) x10)))
(assert (not (= (_ bv2 8) x11)))
(assert (not (= (_ bv2 8) x12)))
(assert (not (= (_ bv2 8) (_ bv8 8))))
(assert (not (= (_ bv2 8) x21)))
(assert (not (= (_ bv2 8) x22)))
(assert (not (= (_ bv4 8) x10)))
(assert (not (= (_ bv4 8) x11)))
(assert (not (= (_ bv4 8) x12)))
(assert (not (= (_ bv4 8) (_ bv8 8))))
(assert (not (= (_ bv4 8) x21)))
(assert (not (= (_ bv4 8) x22)))
(assert (not (= x10 x11)))
(assert (not (= x10 x12)))
(assert (not (= x10 (_ bv8 8))))
(assert (not (= x10 x21)))
(assert (not (= x10 x22)))
(assert (not (= x11 x12)))
(assert (not (= x11 (_ bv8 8))))
(assert (not (= x11 x21)))
(assert (not (= x11 x22)))
(assert (not (= x12 (_ bv8 8))))
(assert (not (= x12 x21)))
(assert (not (= x12 x22)))
(assert (not (= (_ bv8 8) x21)))
(assert (not (= (_ bv8 8) x22)))
(assert (not (= x21 x22)))
(assert (not (= x03 x04)))
(assert (not (= x03 (_ bv3 8))))
(assert (not (= x03 x13)))
(assert (not (= x03 (_ bv7 8))))
(assert (not (= x03 (_ bv2 8))))
(assert (not (= x03 x23)))
(assert (not (= x03 (_ bv1 8))))
(assert (not (= x03 x25)))
(assert (not (= x04 (_ bv3 8))))
(assert (not (= x04 x13)))
(assert (not (= x04 (_ bv7 8))))
(assert (not (= x04 (_ bv2 8))))
(assert (not (= x04 x23)))
(assert (not (= x04 (_ bv1 8))))
(assert (not (= x04 x25)))
(assert (not (= (_ bv3 8) x13)))
(assert (not (= (_ bv3 8) (_ bv7 8))))
(assert (not (= (_ bv3 8) (_ bv2 8))))
(assert (not (= (_ bv3 8) x23)))
(assert (not (= (_ bv3 8) (_ bv1 8))))
(assert (not (= (_ bv3 8) x25)))
(assert (not (= x13 (_ bv7 8))))
(assert (not (= x13 (_ bv2 8))))
(assert (not (= x13 x23)))
(assert (not (= x13 (_ bv1 8))))
(assert (not (= x13 x25)))
(assert (not (= (_ bv7 8) (_ bv2 8))))
(assert (not (= (_ bv7 8) x23)))
(assert (not (= (_ bv7 8) (_ bv1 8))))
(assert (not (= (_ bv7 8) x25)))
(assert (not (= (_ bv2 8) x23)))
(assert (not (= (_ bv2 8) (_ bv1 8))))
(assert (not (= (_ bv2 8) x25)))
(assert (not (= x23 (_ bv1 8))))
(assert (not (= x23 x25)))
(assert (not (= (_ bv1 8) x25)))
(assert (not (= x06 (_ bv1 8))))
(assert (not (= x06 x08)))
(assert (not (= x06 (_ bv4 8))))
(assert (not (= x06 (_ bv3 8))))
(assert (not (= x06 x18)))
(assert (not (= x06 x26)))
(assert (not (= x06 x27)))
(assert (not (= x06 x28)))
(assert (not (= (_ bv1 8) x08)))
(assert (not (= (_ bv1 8) (_ bv4 8))))
(assert (not (= (_ bv1 8) (_ bv3 8))))
(assert (not (= (_ bv1 8) x18)))
(assert (not (= (_ bv1 8) x26)))
(assert (not (= (_ bv1 8) x27)))
(assert (not (= (_ bv1 8) x28)))
(assert (not (= x08 (_ bv4 8))))
(assert (not (= x08 (_ bv3 8))))
(assert (not (= x08 x18)))
(assert (not (= x08 x26)))
(assert (not (= x08 x27)))
(assert (not (= x08 x28)))
(assert (not (= (_ bv4 8) (_ bv3 8))))
(assert (not (= (_ bv4 8) x18)))
(assert (not (= (_ bv4 8) x26)))
(assert (not (= (_ bv4 8) x27)))
(assert (not (= (_ bv4 8) x28)))
(assert (not (= (_ bv3 8) x18)))
(assert (not (= (_ bv3 8) x26)))
(assert (not (= (_ bv3 8) x27)))
(assert (not (= (_ bv3 8) x28)))
(assert (not (= x18 x26)))
(assert (not (= x18 x27)))
(assert (not (= x18 x28)))
(assert (not (= x26 x27)))
(assert (not (= x26 x28)))
(assert (not (= x27 x28)))
(assert (not (= x30 x31)))
(assert (not (= x30 x32)))
(assert (not (= x30 x40)))
(assert (not (= x30 (_ bv6 8))))
(assert (not (= x30 x42)))
(assert (not (= x30 x50)))
(assert (not (= x30 (_ bv3 8))))
(assert (not (= x30 x52)))
(assert (not (= x31 x32)))
(assert (not (= x31 x40)))
(assert (not (= x31 (_ bv6 8))))
(assert (not (= x31 x42)))
(assert (not (= x31 x50)))
(assert (not (= x31 (_ bv3 8))))
(assert (not (= x31 x52)))
(assert (not (= x32 x40)))
(assert (not (= x32 (_ bv6 8))))
(assert (not (= x32 x42)))
(assert (not (= x32 x50)))
(assert (not (= x32 (_ bv3 8))))
(assert (not (= x32 x52)))
(assert (not (= x40 (_ bv6 8))))
(assert (not (= x40 x42)))
(assert (not (= x40 x50)))
(assert (not (= x40 (_ bv3 8))))
(assert (not (= x40 x52)))
(assert (not (= (_ bv6 8) x42)))
(assert (not (= (_ bv6 8) x50)))
(assert (not (= (_ bv6 8) (_ bv3 8))))
(assert (not (= (_ bv6 8) x52)))
(assert (not (= x42 x50)))
(assert (not (= x42 (_ bv3 8))))
(assert (not (= x42 x52)))
(assert (not (= x50 (_ bv3 8))))
(assert (not (= x50 x52)))
(assert (not (= (_ bv3 8) x52)))
(assert (not (= x33 x34)))
(assert (not (= x33 (_ bv1 8))))
(assert (not (= x33 (_ bv5 8))))
(assert (not (= x33 (_ bv3 8))))
(assert (not (= x33 x45)))
(assert (not (= x33 x53)))
(assert (not (= x33 (_ bv8 8))))
(assert (not (= x33 (_ bv4 8))))
(assert (not (= x34 (_ bv1 8))))
(assert (not (= x34 (_ bv5 8))))
(assert (not (= x34 (_ bv3 8))))
(assert (not (= x34 x45)))
(assert (not (= x34 x53)))
(assert (not (= x34 (_ bv8 8))))
(assert (not (= x34 (_ bv4 8))))
(assert (not (= (_ bv1 8) (_ bv5 8))))
(assert (not (= (_ bv1 8) (_ bv3 8))))
(assert (not (= (_ bv1 8) x45)))
(assert (not (= (_ bv1 8) x53)))
(assert (not (= (_ bv1 8) (_ bv8 8))))
(assert (not (= (_ bv1 8) (_ bv4 8))))
(assert (not (= (_ bv5 8) (_ bv3 8))))
(assert (not (= (_ bv5 8) x45)))
(assert (not (= (_ bv5 8) x53)))
(assert (not (= (_ bv5 8) (_ bv8 8))))
(assert (not (= (_ bv5 8) (_ bv4 8))))
(assert (not (= (_ bv3 8) x45)))
(assert (not (= (_ bv3 8) x53)))
(assert (not (= (_ bv3 8) (_ bv8 8))))
(assert (not (= (_ bv3 8) (_ bv4 8))))
(assert (not (= x45 x53)))
(assert (not (= x45 (_ bv8 8))))
(assert (not (= x45 (_ bv4 8))))
(assert (not (= x53 (_ bv8 8))))
(assert (not (= x53 (_ bv4 8))))
(assert (not (= (_ bv8 8) (_ bv4 8))))
(assert (not (= (_ bv2 8) (_ bv7 8))))
(assert (not (= (_ bv2 8) x38)))
(assert (not (= (_ bv2 8) (_ bv1 8))))
(assert (not (= (_ bv2 8) x47)))
(assert (not (= (_ bv2 8) x48)))
(assert (not (= (_ bv2 8) (_ bv6 8))))
(assert (not (= (_ bv2 8) x57)))
(assert (not (= (_ bv2 8) x58)))
(assert (not (= (_ bv7 8) x38)))
(assert (not (= (_ bv7 8) (_ bv1 8))))
(assert (not (= (_ bv7 8) x47)))
(assert (not (= (_ bv7 8) x48)))
(assert (not (= (_ bv7 8) (_ bv6 8))))
(assert (not (= (_ bv7 8) x57)))
(assert (not (= (_ bv7 8) x58)))
(assert (not (= x38 (_ bv1 8))))
(assert (not (= x38 x47)))
(assert (not (= x38 x48)))
(assert (not (= x38 (_ bv6 8))))
(assert (not (= x38 x57)))
(assert (not (= x38 x58)))
(assert (not (= (_ bv1 8) x47)))
(assert (not (= (_ bv1 8) x48)))
(assert (not (= (_ bv1 8) (_ bv6 8))))
(assert (not (= (_ bv1 8) x57)))
(assert (not (= (_ bv1 8) x58)))
(assert (not (= x47 x48)))
(assert (not (= x47 (_ bv6 8))))
(assert (not (= x47 x57)))
(assert (not (= x47 x58)))
(assert (not (= x48 (_ bv6 8))))
(assert (not (= x48 x57)))
(assert (not (= x48 x58)))
(assert (not (= (_ bv6 8) x57)))
(assert (not (= (_ bv6 8) x58)))
(assert (not (= x57 x58)))
(assert (not (= (_ bv2 8) (_ bv4 8))))
(assert (not (= (_ bv2 8) (_ bv7 8))))
(assert (not (= (_ bv2 8) x70)))
(assert (not (= (_ bv2 8) x71)))
(assert (not (= (_ bv2 8) (_ bv5 8))))
(assert (not (= (_ bv2 8) (_ bv1 8))))
(assert (not (= (_ bv2 8) x81)))
(assert (not (= (_ bv2 8) x82)))
(assert (not (= (_ bv4 8) (_ bv7 8))))
(assert (not (= (_ bv4 8) x70)))
(assert (not (= (_ bv4 8) x71)))
(assert (not (= (_ bv4 8) (_ bv5 8))))
(assert (not (= (_ bv4 8) (_ bv1 8))))
(assert (not (= (_ bv4 8) x81)))
(assert (not (= (_ bv4 8) x82)))
(assert (not (= (_ bv7 8) x70)))
(assert (not (= (_ bv7 8) x71)))
(assert (not (= (_ bv7 8) (_ bv5 8))))
(assert (not (= (_ bv7 8) (_ bv1 8))))
(assert (not (= (_ bv7 8) x81)))
(assert (not (= (_ bv7 8) x82)))
(assert (not (= x70 x71)))
(assert (not (= x70 (_ bv5 8))))
(assert (not (= x70 (_ bv1 8))))
(assert (not (= x70 x81)))
(assert (not (= x70 x82)))
(assert (not (= x71 (_ bv5 8))))
(assert (not (= x71 (_ bv1 8))))
(assert (not (= x71 x81)))
(assert (not (= x71 x82)))
(assert (not (= (_ bv5 8) (_ bv1 8))))
(assert (not (= (_ bv5 8) x81)))
(assert (not (= (_ bv5 8) x82)))
(assert (not (= (_ bv1 8) x81)))
(assert (not (= (_ bv1 8) x82)))
(assert (not (= x81 x82)))
(assert (not (= x63 (_ bv6 8))))
(assert (not (= x63 x65)))
(assert (not (= x63 x73)))
(assert (not (= x63 x74)))
(assert (not (= x63 (_ bv8 8))))
(assert (not (= x63 x83)))
(assert (not (= x63 x84)))
(assert (not (= x63 (_ bv9 8))))
(assert (not (= (_ bv6 8) x65)))
(assert (not (= (_ bv6 8) x73)))
(assert (not (= (_ bv6 8) x74)))
(assert (not (= (_ bv6 8) (_ bv8 8))))
(assert (not (= (_ bv6 8) x83)))
(assert (not (= (_ bv6 8) x84)))
(assert (not (= (_ bv6 8) (_ bv9 8))))
(assert (not (= x65 x73)))
(assert (not (= x65 x74)))
(assert (not (= x65 (_ bv8 8))))
(assert (not (= x65 x83)))
(assert (not (= x65 x84)))
(assert (not (= x65 (_ bv9 8))))
(assert (not (= x73 x74)))
(assert (not (= x73 (_ bv8 8))))
(assert (not (= x73 x83)))
(assert (not (= x73 x84)))
(assert (not (= x73 (_ bv9 8))))
(assert (not (= x74 (_ bv8 8))))
(assert (not (= x74 x83)))
(assert (not (= x74 x84)))
(assert (not (= x74 (_ bv9 8))))
(assert (not (= (_ bv8 8) x83)))
(assert (not (= (_ bv8 8) x84)))
(assert (not (= (_ bv8 8) (_ bv9 8))))
(assert (not (= x83 x84)))
(assert (not (= x83 (_ bv9 8))))
(assert (not (= x84 (_ bv9 8))))
(assert (not (= (_ bv9 8) x67)))
(assert (not (= (_ bv9 8) x68)))
(assert (not (= (_ bv9 8) x76)))
(assert (not (= (_ bv9 8) x77)))
(assert (not (= (_ bv9 8) (_ bv4 8))))
(assert (not (= (_ bv9 8) (_ bv3 8))))
(assert (not (= (_ bv9 8) (_ bv2 8))))
(assert (not (= (_ bv9 8) (_ bv5 8))))
(assert (not (= x67 x68)))
(assert (not (= x67 x76)))
(assert (not (= x67 x77)))
(assert (not (= x67 (_ bv4 8))))
(assert (not (= x67 (_ bv3 8))))
(assert (not (= x67 (_ bv2 8))))
(assert (not (= x67 (_ bv5 8))))
(assert (not (= x68 x76)))
(assert (not (= x68 x77)))
(assert (not (= x68 (_ bv4 8))))
(assert (not (= x68 (_ bv3 8))))
(assert (not (= x68 (_ bv2 8))))
(assert (not (= x68 (_ bv5 8))))
(assert (not (= x76 x77)))
(assert (not (= x76 (_ bv4 8))))
(assert (not (= x76 (_ bv3 8))))
(assert (not (= x76 (_ bv2 8))))
(assert (not (= x76 (_ bv5 8))))
(assert (not (= x77 (_ bv4 8))))
(assert (not (= x77 (_ bv3 8))))
(assert (not (= x77 (_ bv2 8))))
(assert (not (= x77 (_ bv5 8))))
(assert (not (= (_ bv4 8) (_ bv3 8))))
(assert (not (= (_ bv4 8) (_ bv2 8))))
(assert (not (= (_ bv4 8) (_ bv5 8))))
(assert (not (= (_ bv3 8) (_ bv2 8))))
(assert (not (= (_ bv3 8) (_ bv5 8))))
(assert (not (= (_ bv2 8) (_ bv5 8))))
(check-sat)
(exit)
